8 7 64 63 60 6 58 57 56 55 54 53 52 5 48 47 46 44 43 41 40 38 37 31 30 29 28 27 26 25 24 23 22 21 20 19 18 17 9 14 13 12 11 68 35 59 45 15 62 51 42 39 34 10 66 49 36 32 16 591 731 521 33 479 61 50 830 703 69 605 262 171 871 65 311 619 269 213 180 801 626 507 312 843 578 494 717 70 647 802 738 522 353 549 451 745 241 593 381 382 732 829 297 423 755 840 716 227 325 563 885 82 857 759 396 408 535 214 564 501 577 264 815 689 675 773 733 536 361 633 395 879 845 864 411 838 865 550 320 634 292 570 502 899 753 489 339 787 136 712 437 661 598 199 431 409 458 752 452 839 71 542 465 367 467 668 868 551 306 185 72 795 788 720 528 318 459 800 808 462 556 460 654 579 878 590 774 572 775 873 565 697 73 783 781 690 445 908 710 780 648 669 571 463 794 655 547 222 724 850 726 822 360 509 893 906 682 96 390 212 80 473 75 649 766 430 74 683 747 741 699 585 684 691 573 76 589 744 453 789 810 416 723 84 621 909 663 432 586 670 705 642 866 696 434 394 425 632 447 895 86 698 892 901 417 584 588 685 671 493 334 798 433 403 405 580 677 575 784 761 67 393 674 887 767 615 559 597 369 587 721 392 164 657 643 581 261 336 319 557 627 529 622 448 803 472 765 366 762 768 350 78 672 464 896 574 310 833 678 771 324 322 290 639 560 791 748 749 443 681 907 809 641 537 450 348 517 407 355 377 757 786 323 347 544 418 530 729 875 686 553 402 293 797 763 440 903 769 499 851 362 740 596 734 904 582 389 790 890 736 750 679 429 693 889 707 533 415 412 391 342 792 614 441 435 349 583 568 667 779 700 630 531 454 664 85 332 331 328 836 824 799 386 777 692 625 329 335 770 764 725 488 817 504 881 651 652 778 735 666 546 496 486 374 754 751 609 884 665 538 737 515 383 510 414 321 304 484 704 812 709 545 594 359 880 469 480 882 811 372 344 436 673 618 610 500 498 456 426 410 846 841 404 338 497 83 567 776 539 694 636 481 363 650 525 708 552 543 526 883 715 357 847 834 637 603 516 623 566 540 468 365 506 358 317 628 315 910 852 513 327 555 401 305 370 477 413 894 428 848 613 595 511 314 876 832 313 874 727 722 483 419 742 867 475 442 427 397 346 902 758 739 719 706 558 474 446 345 823 631 782 624 541 343 793 287 837 820 713 819 804 616 870 283 554 455 385 2 891 888 316 853 816 505 422 612 439 375 877 862 831 796 659 444 371 861 821 818 660 461 356 898 805 330 635 548 482 730 658 608 400 341 524 221 512 495 470 457 163 379 364 728 711 695 640 854 607 421 399 291 638 599 487 4 827 814 772 514 860 855 503 478 384 352 807 688 601 561 520 420 289 743 629 604 569 424 869 806 532 491 449 398 378 863 387 911 825 702 309 263 656 534 842 476 337 288 676 646 602 519 308 645 897 886 826 617 380 368 307 333 785 760 756 662 644 490 376 813 680 653 611 600 562 527 518 406 388 373 523 351 265 3 905 849 295 828 714 492 872 746 701 687 215 835 485 438 471 466 303 165 508 294 912 301 300 299 302 1 93 91 900 89 856 844 620 592 576 277 268 267 266 249 248 237 236 235 216 208 207 193 179 129 81 255 250 194 279 223 175 157 296 859 99 98 97 95 94 92 90 88 87 858 79 77 718 354 340 326 298 286 285 284 282 281 280 278 276 275 274 273 272 271 270 260 259 258 257 256 254 253 252 251 247 246 245 244 243 242 240 239 238 234 233 232 231 230 229 228 226 225 224 220 219 218 217 211 210 209 206 205 204 203 202 201 200 198 197 196 192 191 190 189 188 187 186 184 183 182 181 178 177 176 174 173 172 170 169 168 167 166 162 161 160 159 158 156 155 154 153 152 151 150 149 148 147 146 145 144 143 142 141 140 139 138 137 135 134 133 132 131 130 128 127 126 125 124 123 122 121 120 119 118 117 116 115 114 113 112 111 110 109 108 107 106 105 104 103 102 101 100 195 606 1632 999 998 997 996 995 994 993 992 991 990 989 988 987 986 985 984 983 982 981 980 979 978 977 976 975 974 973 972 971 970 969 968 967 966 965 964 963 962 961 960 959 958 957 956 955 954 953 952 951 950 949 948 947 946 945 944 943 942 941 940 939 938 937 936 935 934 933 932 931 930 929 928 927 926 925 924 923 922 921 920 919 918 917 916 915 914 913 1631 1630 1629 1628 1627 1626 1625 1624 1623 1622 1621 1620 1619 1618 1617 1616 1615 1614 1613 1612 1611 1610 1609 1608 1607 1606 1605 1604 1603 1602 1601 1600 1599 1598 1597 1596 1595 1594 1593 1592 1591 1590 1589 1588 1587 1586 1585 1584 1583 1582 1581 1580 1579 1578 1577 1576 1575 1574 1573 1572 1571 1570 1569 1568 1567 1566 1565 1564 1563 1562 1561 1560 1559 1558 1557 1556 1555 1554 1553 1552 1551 1550 1549 1548 1547 1546 1545 1544 1543 1542 1541 1540 1539 1538 1537 1536 1535 1534 1533 1532 1531 1530 1529 1528 1527 1526 1525 1524 1523 1522 1521 1520 1519 1518 1517 1516 1515 1514 1513 1512 1511 1510 1509 1508 1507 1506 1505 1504 1503 1502 1501 1500 1499 1498 1497 1496 1495 1494 1493 1492 1491 1490 1489 1488 1487 1486 1485 1484 1483 1482 1481 1480 1479 1478 1477 1476 1475 1474 1473 1472 1471 1470 1469 1468 1467 1466 1465 1464 1463 1462 1461 1460 1459 1458 1457 1456 1455 1454 1453 1452 1451 1450 1449 1448 1447 1446 1445 1444 1443 1442 1441 1440 1439 1438 1437 1436 1435 1434 1433 1432 1431 1430 1429 1428 1427 1426 1425 1424 1423 1422 1421 1420 1419 1418 1417 1416 1415 1414 1413 1412 1411 1410 1409 1408 1407 1406 1405 1404 1403 1402 1401 1400 1399 1398 1397 1396 1395 1394 1393 1392 1391 1390 1389 1388 1387 1386 1385 1384 1383 1382 1381 1380 1379 1378 1377 1376 1375 1374 1373 1372 1371 1370 1369 1368 1367 1366 1365 1364 1363 1362 1361 1360 1359 1358 1357 1356 1355 1354 1353 1352 1351 1350 1349 1348 1347 1346 1345 1344 1343 1342 1341 1340 1339 1338 1337 1336 1335 1334 1333 1332 1331 1330 1329 1328 1327 1326 1325 1324 1323 1322 1321 1320 1319 1318 1317 1316 1315 1314 1313 1312 1311 1310 1309 1308 1307 1306 1305 1304 1303 1302 1301 1300 1299 1298 1297 1296 1295 1294 1293 1292 1291 1290 1289 1288 1287 1286 1285 1284 1283 1282 1281 1280 1279 1278 1277 1276 1275 1274 1273 1272 1271 1270 1269 1268 1267 1266 1265 1264 1263 1262 1261 1260 1259 1258 1257 1256 1255 1254 1253 1252 1251 1250 1249 1248 1247 1246 1245 1244 1243 1242 1241 1240 1239 1238 1237 1236 1235 1234 1233 1232 1231 1230 1229 1228 1227 1226 1225 1224 1223 1222 1221 1220 1219 1218 1217 1216 1215 1214 1213 1212 1211 1210 1209 1208 1207 1206 1205 1204 1203 1202 1201 1200 1199 1198 1197 1196 1195 1194 1193 1192 1191 1190 1189 1188 1187 1186 1185 1184 1183 1182 1181 1180 1179 1178 1177 1176 1175 1174 1173 1172 1171 1170 1169 1168 1167 1166 1165 1164 1163 1162 1161 1160 1159 1158 1157 1156 1155 1154 1153 1152 1151 1150 1149 1148 1147 1146 1145 1144 1143 1142 1141 1140 1139 1138 1137 1136 1135 1134 1133 1132 1131 1130 1129 1128 1127 1126 1125 1124 1123 1122 1121 1120 1119 1118 1117 1116 1115 1114 1113 1112 1111 1110 1109 1108 1107 1106 1105 1104 1103 1102 1101 1100 1099 1098 1097 1096 1095 1094 1093 1092 1091 1090 1089 1088 1087 1086 1085 1084 1083 1082 1081 1080 1079 1078 1077 1076 1075 1074 1073 1072 1071 1070 1069 1068 1067 1066 1065 1064 1063 1062 1061 1060 1059 1058 1057 1056 1055 1054 1053 1052 1051 1050 1049 1048 1047 1046 1045 1044 1043 1042 1041 1040 1039 1038 1037 1036 1035 1034 1033 1032 1031 1030 1029 1028 1027 1026 1025 1024 1023 1022 1021 1020 1019 1018 1017 1016 1015 1014 1013 1012 1011 1010 1009 1008 1007 1006 1005 1004 1003 1002 1001 1000 
